NAME: random problem
TYPE: MTSP
COMMENT: MTSP problem for MRS UAV summer school
DIMENSION: 20
NUMBER_OF_ROBOTS: 2
START_TARGET_INDEXES: 1, 2
NEIGHBORHOOD_RADIUS: 2
EDGE_WEIGHT_TYPE: EUC_2D
NODE_COORD_SECTION
1 15.0 -21.0
2 -5.0 -25.0
3 -17.3 -16.5
4 32.2 6.1
5 8.1 -23.2
6 25.0 -0.8
7 -21.4 -1.8
8 -8.6 -7.0
9 4.4 15.6
10 7.7 -5.3
11 1.5 3.7
12 8.5 -23.2
13 -17.8 0.9
14 -40.3 1.5
15 0.3 11.2
16 1.8 16.9
17 -11.1 9.7
18 19.8 -22.4
19 41.4 -20.2
20 -2.2 -17.2
EOF
